NAME: PointSet_Angle_60_5
TYPE: TSP
COMMENT: Points chosen discrete uniformly at random out of ${0, \ldots, 500}^2$.
DIMENSION: 60
EDGE_WEIGHT_TYPE: EUC_2D
NODE_COORD_SECTION
1 395 129
2 389 341
3 436 102
4 365 366
5 261 0
6 335 377
7 108 458
8 370 234
9 252 392
10 44 471
11 389 16
12 404 182
13 346 126
14 165 0
15 453 324
16 174 93
17 453 309
18 435 389
19 411 299
20 0 418
21 299 81
22 294 407
23 285 163
24 140 283
25 301 432
26 253 189
27 194 156
28 118 40
29 28 29
30 287 228
31 353 207
32 321 52
33 15 255
34 187 172
35 300 187
36 89 346
37 14 129
38 252 299
39 292 139
40 328 339
41 317 80
42 28 10
43 483 393
44 297 257
45 422 83
46 485 275
47 36 306
48 327 51
49 307 260
50 223 107
51 193 58
52 453 207
53 187 451
54 252 225
55 336 79
56 64 152
57 406 339
58 410 134
59 231 453
60 391 152
EOF
